benchmarks/bfuzz0/187797608138982081119150143091633831450.smt2
(set-logic QF_FP)
(declare-const x0 (_ FloatingPoint 11 53))
(declare-const x1 (_ FloatingPoint 11 53))
(declare-const x2 (_ FloatingPoint 11 53))
(declare-const x3 (_ FloatingPoint 11 53))
(declare-const x4 (_ FloatingPoint 11 53))
(declare-const x5 (_ FloatingPoint 11 53))
(declare-const x6 (_ FloatingPoint 11 53))
(declare-const x7 (_ FloatingPoint 11 53))
(declare-const x8 (_ FloatingPoint 11 53))
(declare-const x9 (_ FloatingPoint 11 53))
(declare-const x10 (_ FloatingPoint 11 53))
(declare-const x11 (_ FloatingPoint 11 53))
(assert (fp.lt (fp.neg (fp.neg x9)) (fp.neg (fp.sub RNE x9 x11))))
(assert (fp.lt (fp.div RNE (fp.div RNE x10 x9) (fp.div RNE x0 x9)) (fp.sub RNE (fp.sub RNE x1 x0) (fp.sub RNE x6 x1))))
(assert (fp.geq (fp.div RNE (fp.mul RNE x2 x3) (fp.neg x11)) (fp.div RNE (fp.add RNE x1 x7) (fp.add RNE x9 x11))))
(assert (fp.lt (fp.add RNE (fp.mul RNE x9 x7) (fp.neg x2)) (fp.mul RNE (fp.mul RNE x3 x6) (fp.neg x4))))
(assert (fp.lt (fp.mul RNE (fp.mul RNE x3 x1) (fp.div RNE x1 x10)) (fp.neg (fp.mul RNE x3 x0))))
(assert (fp.geq (fp.div RNE (fp.div RNE x4 x7) (fp.add RNE x7 x8)) (fp.mul RNE (fp.add RNE x2 x0) (fp.neg x9))))
(assert (fp.lt (fp.sub RNE (fp.sub RNE x11 x9) (fp.mul RNE x4 x10)) (fp.add RNE (fp.div RNE x3 x4) (fp.sub RNE x4 x3))))
(assert (fp.gt (fp.mul RNE (fp.neg x3) (fp.sub RNE x10 x10)) (fp.add RNE (fp.add RNE x4 x7) (fp.add RNE x9 x3))))
(assert (fp.lt (fp.sub RNE (fp.add RNE x1 x9) (fp.sub RNE x6 x9)) (fp.div RNE (fp.add RNE x4 x9) (fp.div RNE x1 x8))))
(assert (fp.gt (fp.neg (fp.div RNE x0 x1)) (fp.div RNE (fp.sub RNE x2 x5) (fp.neg x7))))
(check-sat)
