db/data/187797608138982081119150143091633831450.z3.out
-------------------
2500.120200743
